CPLEX 12.6.2.0: mipgap=0.001
mipdisplay=3
MIP Presolve eliminated 20 rows and 240 columns.
Reduced MIP has 140 rows, 600 columns, and 1580 nonzeros.
Reduced MIP has 600 binaries, 0 generals, 0 SOSs, and 0 indicators.
Found incumbent of value 110.000000 after 0.01 sec. (2.78 ticks)
Probing time = 0.00 sec. (0.37 ticks)
Reduced MIP has 140 rows, 600 columns, and 1580 nonzeros.
Reduced MIP has 600 binaries, 0 generals, 0 SOSs, and 0 indicators.
Probing time = 0.00 sec. (0.36 ticks)
Clique table members: 420.
MIP emphasis: balance optimality and feasibility.
MIP search method: dynamic search.
Parallel mode: deterministic, using up to 4 threads.
Root relaxation solution time = 0.00 sec. (1.75 ticks)

        Nodes                                         Cuts/
   Node  Left     Objective  IInf  Best Integer    Best Bound    ItCnt     Gap

*     0+    0                          110.0000        0.0000           100.00%
Found incumbent of value 110.000000 after 0.01 sec. (6.86 ticks)
*     0+    0                           68.0000        0.0000           100.00%
Found incumbent of value 68.000000 after 0.01 sec. (6.86 ticks)
*     0+    0                           35.0000        0.0000           100.00%
Found incumbent of value 35.000000 after 0.01 sec. (6.86 ticks)
*     0+    0                           22.0000        0.0000           100.00%
Found incumbent of value 22.000000 after 0.01 sec. (6.86 ticks)
      0     0        8.3333    40       22.0000        8.3333      175   62.12%
      0     0       13.3333    59       22.0000     Cuts: 110      273   39.39%
*     0+    0                           15.0000       13.3333            11.11%
Found incumbent of value 15.000000 after 0.06 sec. (15.93 ticks)
      0     0       13.3333    65       15.0000       Cuts: 8      274   11.11%
*     0+    0                           14.0000       13.3333             4.76%
Found incumbent of value 14.000000 after 0.14 sec. (42.64 ticks)
      0     0        cutoff             14.0000       13.3333      274    4.76%
Elapsed time = 0.14 sec. (42.65 ticks, tree = 0.00 MB)

GUB cover cuts applied:  20
Clique cuts applied:  20
Zero-half cuts applied:  20
Multi commodity flow cuts applied:  2
Gomory fractional cuts applied:  6

Root node processing (before b&c):
  Real time             =    0.14 sec. (42.67 ticks)
Parallel b&c, 4 threads:
  Real time             =    0.00 sec. (0.00 ticks)
  Sync time (average)   =    0.00 sec.
  Wait time (average)   =    0.00 sec.
                          ------------
Total (root+branch&cut) =    0.14 sec. (42.67 ticks)
CPLEX 12.6.2.0: optimal integer solution; objective 14
274 MIP simplex iterations
0 branch-and-bound nodes
No basis.
CB :=
1 2   1
1 3   1
1 4   0
1 5   1
2 1   1
2 3   0
2 4   1
2 5   1
3 1   1
3 2   0
3 4   1
3 5   0
4 1   1
4 2   1
4 3   0
4 5   1
5 1   0
5 2   1
5 3   1
5 4   1
;

